NAME : LPS-n32-m91
COMMENT : (Lartu-Peter-Santi Plot, instance 11691 out of 39200. 32 customers.)
TYPE : CVRP
DIMENSION : 32
EDGE_WEIGHT_TYPE : EUC_2D
CAPACITY : 87
NODE_COORD_SECTION
 1 76 61
 2 49 56
 3 26 74
 4 74 100
 5 40 38
 6 19 33
 7 96 92
 8 0 60
 9 39 28
 10 75 29
 11 94 30
 12 92 46
 13 8 19
 14 74 38
 15 6 12
 16 12 92
 17 29 10
 18 5 10
 19 10 9
 20 46 63
 21 61 83
 22 71 17
 23 34 6
 24 34 56
 25 69 16
 26 14 82
 27 58 43
 28 57 93
 29 32 91
 30 63 53
 31 33 46
 32 97 70
DEMAND_SECTION
1 0
2 55
3 2
4 80
5 63
6 63
7 65
8 15
9 28
10 75
11 18
12 22
13 77
14 51
15 22
16 74
17 21
18 62
19 35
20 69
21 72
22 78
23 31
24 44
25 4
26 27
27 8
28 68
29 3
30 37
31 49
32 42
DEPOT_SECTION
 1
 -1
EOF
